NAME : LC1_6_5
TYPE : PDPTW
DIMENSION : 150
EDGE_WEIGHT_TYPE : EXACT_2D
NODE_COORD_SECTION
1 1 0
2 150 0
3 0 0
4 20 277
5 84 2
6 515 676
7 3 229
8 348 90
9 214 156
10 90 0
11 260 10
12 0 567
13 10 219
14 401 7
15 163 320
16 8 85
17 998 90
18 105 230
19 90 0
20 111 30
21 0 202
22 -10 1090
23 0 12
24 597 728
25 13 143
26 146 90
27 173 233
28 90 142
29 24 -20
30 170 0
31 -20 267
32 0 17
33 531 653
34 18 141
35 265 90
36 100 73
37 90 572
38 70 30
39 0 255
40 -30 274
41 0 22
42 383 514
43 23 129
44 666 90
45 62 65
46 90 0
47 239 -20
48 292 0
49 40 543
50 341 27
51 687 809
52 28 203
53 151 90
54 251 241
55 90 204
56 110 20
57 0 622
58 10 131
59 160 32
60 806 953
61 33 145
62 540 90
63 121 170
64 0 0
65 141 20
66 0 93
67 20 331
68 474 37
69 664 807
70 38 122
71 551 90
72 119 267
73 0 0
74 113 -10
75 580 0
76 10 640
77 578 42
78 116 230
79 43 157
80 1281 90
81 73 226
82 90 479
83 109 40
84 0 412
85 -10 837
86 0 47
87 76 218
88 48 31
89 773 90
90 10 147
91 90 0
92 176 20
93 0 146
94 20 135
95 16 52
96 145 287
97 53 119
98 526 90
99 220 74
100 90 0
101 175 30
102 0 38
103 30 622
104 334 57
105 153 298
106 58 61
107 508 90
108 140 143
109 90 0
110 125 -10
111 247 0
112 20 71
113 348 62
114 787 880
115 63 103
116 328 90
117 71 154
118 90 346
119 27 20
120 0 74
121 -20 777
122 0 67
123 510 625
124 68 108
125 289 90
126 86 230
127 90 0
128 221 -10
129 535 0
130 10 158
131 582 72
132 345 450
133 73 151
134 469 90
135 83 30
136 90 65
137 184 20
138 0 127
139 10 74
140 393 77
141 539 662
142 78 263
143 631 90
144 259 59
145 90 192
146 26 10
147 0 43
148 -10 990
149 0 82
150 657 790
PICKUP_AND_DELIVERY_SECTION
1 0 0 0 0 0 0
2 0 0 0 0 1496 0
3 0 0 0 0 0 17
4 0 0 0 0 90 90
5 0 0 0 0 254 254
6 0 0 0 0 315 315
7 0 0 0 0 10 10
8 0 0 0 0 397 0
9 0 0 0 0 645 645
10 0 0 0 0 5 5
11 0 0 0 0 438 438
12 0 0 0 0 29 29
13 0 0 0 0 90 90
14 0 0 0 0 277 277
15 0 0 0 0 0 0
16 0 0 0 0 -20 -20
17 0 0 0 0 0 0
18 0 0 0 0 91 91
19 0 0 0 0 10 10
20 0 0 0 0 170 170
21 0 0 0 0 65 65
22 0 0 0 0 90 90
23 0 0 0 0 233 233
24 0 0 0 0 213 213
25 0 0 0 0 20 20
26 0 0 0 0 338 0
27 0 0 0 0 586 586
28 0 0 0 0 15 0
29 0 0 0 0 548 548
30 0 0 0 0 277 277
31 0 0 0 0 90 90
32 0 0 0 0 105 105
33 0 0 0 0 0 0
34 0 0 0 0 30 30
35 0 0 0 0 120 0
36 0 0 0 0 214 214
37 0 0 0 0 20 0
38 0 0 0 0 253 253
39 0 0 0 0 161 161
40 0 0 0 0 90 90
41 0 0 0 0 280 280
42 0 0 0 0 0 0
43 0 0 0 0 -20 -20
44 0 0 0 0 0 0
45 0 0 0 0 896 896
46 0 0 0 0 25 25
47 0 0 0 0 664 664
48 0 0 0 0 9 9
49 0 0 0 0 90 90
50 0 0 0 0 228 228
51 0 0 0 0 577 577
52 0 0 0 0 20 20
53 0 0 0 0 368 0
54 0 0 0 0 158 158
55 0 0 0 0 30 0
56 0 0 0 0 477 477
57 0 0 0 0 106 106
58 0 0 0 0 90 90
59 0 0 0 0 102 102
60 0 0 0 0 0 0
61 0 0 0 0 -30 -30
62 0 0 0 0 0 0
63 0 0 0 0 535 535
64 0 0 0 0 35 35
65 0 0 0 0 559 559
66 0 0 0 0 167 167
67 0 0 0 0 90 90
68 0 0 0 0 229 229
69 0 0 0 0 362 362
70 0 0 0 0 -30 -30
71 0 0 0 0 0 0
72 0 0 0 0 599 599
73 0 0 0 0 40 40
74 0 0 0 0 797 797
75 0 0 0 0 257 257
76 0 0 0 0 90 90
77 0 0 0 0 266 266
78 0 0 0 0 0 0
79 0 0 0 0 -10 -10
80 0 0 0 0 0 0
81 0 0 0 0 122 122
82 0 0 0 0 45 0
83 0 0 0 0 327 327
84 0 0 0 0 12 12
85 0 0 0 0 90 90
86 0 0 0 0 126 126
87 0 0 0 0 0 0
88 0 0 0 0 -20 -20
89 0 0 0 0 0 0
90 0 0 0 0 362 362
91 0 0 0 0 50 50
92 0 0 0 0 379 379
93 0 0 0 0 277 277
94 0 0 0 0 90 90
95 0 0 0 0 232 232
96 0 0 0 0 465 465
97 0 0 0 0 20 20
98 0 0 0 0 270 0
99 0 0 0 0 784 784
100 0 0 0 0 55 55
101 0 0 0 0 480 480
102 0 0 0 0 144 144
103 0 0 0 0 90 90
104 0 0 0 0 285 285
105 0 0 0 0 0 0
106 0 0 0 0 40 40
107 0 0 0 0 436 0
108 0 0 0 0 12 12
109 0 0 0 0 60 60
110 0 0 0 0 391 391
111 0 0 0 0 114 114
112 0 0 0 0 90 90
113 0 0 0 0 80 80
114 0 0 0 0 260 260
115 0 0 0 0 20 20
116 0 0 0 0 383 0
117 0 0 0 0 853 853
118 0 0 0 0 65 0
119 0 0 0 0 468 468
120 0 0 0 0 67 67
121 0 0 0 0 90 90
122 0 0 0 0 132 132
123 0 0 0 0 434 434
124 0 0 0 0 -20 -20
125 0 0 0 0 0 0
126 0 0 0 0 131 131
127 0 0 0 0 70 70
128 0 0 0 0 1106 1106
129 0 0 0 0 116 116
130 0 0 0 0 90 90
131 0 0 0 0 28 28
132 0 0 0 0 0 0
133 0 0 0 0 20 20
134 0 0 0 0 151 0
135 0 0 0 0 567 567
136 0 0 0 0 75 0
137 0 0 0 0 260 260
138 0 0 0 0 141 141
139 0 0 0 0 90 90
140 0 0 0 0 156 156
141 0 0 0 0 468 468
142 0 0 0 0 -30 -30
143 0 0 0 0 0 0
144 0 0 0 0 525 525
145 0 0 0 0 80 0
146 0 0 0 0 1008 1008
147 0 0 0 0 59 59
148 0 0 0 0 90 90
149 0 0 0 0 4 4
150 0 0 0 0 0 0
DEPOT_SECTION
1 
-1
EOF
